c 0.04633212089538574 (encode time in sec)
p cnf 102 1048
1 2 3 4 0
1 2 -3 4 0
1 -2 3 4 0
1 -2 -3 4 0
-1 2 3 4 0
-1 2 -3 4 0
-1 -2 3 4 0
-1 -2 -3 4 0
5 6 7 8 0
5 6 -7 8 0
5 -6 7 8 0
5 -6 -7 8 0
-5 6 7 8 0
-5 6 -7 8 0
-5 -6 7 8 0
-5 -6 -7 8 0
9 10 11 12 0
9 10 -11 12 0
9 -10 11 12 0
9 -10 -11 12 0
-9 10 11 12 0
-9 10 -11 12 0
-9 -10 11 12 0
-9 -10 -11 12 0
13 14 15 1 2 3 5 6 7 17 0
13 14 15 1 2 3 5 6 -7 17 0
13 14 15 1 2 3 5 -6 7 16 0
13 14 15 1 2 3 5 -6 -7 0
13 14 15 1 2 3 -5 6 7 0
13 14 15 1 2 3 -5 6 -7 18 0
13 14 15 1 2 3 -5 -6 7 0
13 14 15 1 2 3 -5 -6 -7 0
13 14 15 1 2 -3 5 6 7 16 0
13 14 15 1 2 -3 5 6 -7 16 0
13 14 15 1 2 -3 5 -6 7 16 0
13 14 15 1 2 -3 5 -6 -7 0
13 14 15 1 2 -3 -5 6 7 0
13 14 15 1 2 -3 -5 6 -7 0
13 14 15 1 2 -3 -5 -6 7 0
13 14 15 1 2 -3 -5 -6 -7 0
13 14 15 1 -2 3 5 6 7 17 0
13 14 15 1 -2 3 5 6 -7 16 0
13 14 15 1 -2 3 5 -6 7 0
13 14 15 1 -2 3 5 -6 -7 0
13 14 15 1 -2 3 -5 6 7 0
13 14 15 1 -2 3 -5 6 -7 0
13 14 15 1 -2 3 -5 -6 7 0
13 14 15 1 -2 3 -5 -6 -7 0
13 14 15 1 -2 -3 5 6 7 20 0
13 14 15 1 -2 -3 5 6 -7 18 0
13 14 15 1 -2 -3 5 -6 7 0
13 14 15 1 -2 -3 5 -6 -7 0
13 14 15 1 -2 -3 -5 6 7 0
13 14 15 1 -2 -3 -5 6 -7 0
13 14 15 1 -2 -3 -5 -6 7 0
13 14 15 1 -2 -3 -5 -6 -7 0
13 14 15 -1 2 3 5 6 7 17 0
13 14 15 -1 2 3 5 6 -7 0
13 14 15 -1 2 3 5 -6 7 0
13 14 15 -1 2 3 5 -6 -7 0
13 14 15 -1 2 3 -5 6 7 0
13 14 15 -1 2 3 -5 6 -7 0
13 14 15 -1 2 3 -5 -6 7 0
13 14 15 -1 2 3 -5 -6 -7 0
13 14 15 -1 2 -3 5 6 7 21 0
13 14 15 -1 2 -3 5 6 -7 0
13 14 15 -1 2 -3 5 -6 7 0
13 14 15 -1 2 -3 5 -6 -7 0
13 14 15 -1 2 -3 -5 6 7 0
13 14 15 -1 2 -3 -5 6 -7 0
13 14 15 -1 2 -3 -5 -6 7 0
13 14 15 -1 2 -3 -5 -6 -7 0
13 14 15 -1 -2 3 5 6 7 0
13 14 15 -1 -2 3 5 6 -7 0
13 14 15 -1 -2 3 5 -6 7 0
13 14 15 -1 -2 3 5 -6 -7 0
13 14 15 -1 -2 3 -5 6 7 0
13 14 15 -1 -2 3 -5 6 -7 0
13 14 15 -1 -2 3 -5 -6 7 22 0
13 14 15 -1 -2 3 -5 -6 -7 0
13 14 15 -1 -2 -3 5 6 7 23 0
13 14 15 -1 -2 -3 5 6 -7 0
13 14 15 -1 -2 -3 5 -6 7 0
13 14 15 -1 -2 -3 5 -6 -7 0
13 14 15 -1 -2 -3 -5 6 7 0
13 14 15 -1 -2 -3 -5 6 -7 0
13 14 15 -1 -2 -3 -5 -6 7 0
13 14 15 -1 -2 -3 -5 -6 -7 0
13 14 -15 1 2 3 5 6 7 0
13 14 -15 1 2 3 5 6 -7 0
13 14 -15 1 2 3 5 -6 7 16 0
13 14 -15 1 2 3 5 -6 -7 17 0
13 14 -15 1 2 3 -5 6 7 17 0
13 14 -15 1 2 3 -5 6 -7 0
13 14 -15 1 2 3 -5 -6 7 0
13 14 -15 1 2 3 -5 -6 -7 0
13 14 -15 1 2 -3 5 6 7 16 0
13 14 -15 1 2 -3 5 6 -7 16 0
13 14 -15 1 2 -3 5 -6 7 16 0
13 14 -15 1 2 -3 5 -6 -7 23 0
13 14 -15 1 2 -3 -5 6 7 0
13 14 -15 1 2 -3 -5 6 -7 0
13 14 -15 1 2 -3 -5 -6 7 0
13 14 -15 1 2 -3 -5 -6 -7 0
13 14 -15 1 -2 3 5 6 7 0
13 14 -15 1 -2 3 5 6 -7 23 0
13 14 -15 1 -2 3 5 -6 7 16 0
13 14 -15 1 -2 3 5 -6 -7 0
13 14 -15 1 -2 3 -5 6 7 18 0
13 14 -15 1 -2 3 -5 6 -7 0
13 14 -15 1 -2 3 -5 -6 7 0
13 14 -15 1 -2 3 -5 -6 -7 0
13 14 -15 1 -2 -3 5 6 7 23 0
13 14 -15 1 -2 -3 5 6 -7 18 0
13 14 -15 1 -2 -3 5 -6 7 17 0
13 14 -15 1 -2 -3 5 -6 -7 0
13 14 -15 1 -2 -3 -5 6 7 0
13 14 -15 1 -2 -3 -5 6 -7 0
13 14 -15 1 -2 -3 -5 -6 7 0
13 14 -15 1 -2 -3 -5 -6 -7 0
13 14 -15 -1 2 3 5 6 7 0
13 14 -15 -1 2 3 5 6 -7 17 0
13 14 -15 -1 2 3 5 -6 7 18 0
13 14 -15 -1 2 3 5 -6 -7 0
13 14 -15 -1 2 3 -5 6 7 0
13 14 -15 -1 2 3 -5 6 -7 0
13 14 -15 -1 2 3 -5 -6 7 0
13 14 -15 -1 2 3 -5 -6 -7 0
13 14 -15 -1 2 -3 5 6 7 18 0
13 14 -15 -1 2 -3 5 6 -7 0
13 14 -15 -1 2 -3 5 -6 7 0
13 14 -15 -1 2 -3 5 -6 -7 0
13 14 -15 -1 2 -3 -5 6 7 0
13 14 -15 -1 2 -3 -5 6 -7 0
13 14 -15 -1 2 -3 -5 -6 7 0
13 14 -15 -1 2 -3 -5 -6 -7 0
13 14 -15 -1 -2 3 5 6 7 17 0
13 14 -15 -1 -2 3 5 6 -7 24 0
13 14 -15 -1 -2 3 5 -6 7 0
13 14 -15 -1 -2 3 5 -6 -7 0
13 14 -15 -1 -2 3 -5 6 7 0
13 14 -15 -1 -2 3 -5 6 -7 0
13 14 -15 -1 -2 3 -5 -6 7 22 0
13 14 -15 -1 -2 3 -5 -6 -7 0
13 14 -15 -1 -2 -3 5 6 7 23 0
13 14 -15 -1 -2 -3 5 6 -7 0
13 14 -15 -1 -2 -3 5 -6 7 0
13 14 -15 -1 -2 -3 5 -6 -7 0
13 14 -15 -1 -2 -3 -5 6 7 0
13 14 -15 -1 -2 -3 -5 6 -7 0
13 14 -15 -1 -2 -3 -5 -6 7 0
13 14 -15 -1 -2 -3 -5 -6 -7 0
13 -14 15 1 2 3 5 6 7 0
13 -14 15 1 2 3 5 6 -7 0
13 -14 15 1 2 3 5 -6 7 0
13 -14 15 1 2 3 5 -6 -7 0
13 -14 15 1 2 3 -5 6 7 0
13 -14 15 1 2 3 -5 6 -7 18 0
13 -14 15 1 2 3 -5 -6 7 23 0
13 -14 15 1 2 3 -5 -6 -7 0
13 -14 15 1 2 -3 5 6 7 0
13 -14 15 1 2 -3 5 6 -7 0
13 -14 15 1 2 -3 5 -6 7 0
13 -14 15 1 2 -3 5 -6 -7 20 0
13 -14 15 1 2 -3 -5 6 7 25 0
13 -14 15 1 2 -3 -5 6 -7 0
13 -14 15 1 2 -3 -5 -6 7 0
13 -14 15 1 2 -3 -5 -6 -7 0
13 -14 15 1 -2 3 5 6 7 0
13 -14 15 1 -2 3 5 6 -7 0
13 -14 15 1 -2 3 5 -6 7 0
13 -14 15 1 -2 3 5 -6 -7 18 0
13 -14 15 1 -2 3 -5 6 7 0
13 -14 15 1 -2 3 -5 6 -7 0
13 -14 15 1 -2 3 -5 -6 7 0
13 -14 15 1 -2 3 -5 -6 -7 0
13 -14 15 1 -2 -3 5 6 7 0
13 -14 15 1 -2 -3 5 6 -7 18 0
13 -14 15 1 -2 -3 5 -6 7 0
13 -14 15 1 -2 -3 5 -6 -7 0
13 -14 15 1 -2 -3 -5 6 7 16 0
13 -14 15 1 -2 -3 -5 6 -7 0
13 -14 15 1 -2 -3 -5 -6 7 0
13 -14 15 1 -2 -3 -5 -6 -7 0
13 -14 15 -1 2 3 5 6 7 0
13 -14 15 -1 2 3 5 6 -7 0
13 -14 15 -1 2 3 5 -6 7 18 0
13 -14 15 -1 2 3 5 -6 -7 21 0
13 -14 15 -1 2 3 -5 6 7 18 0
13 -14 15 -1 2 3 -5 6 -7 0
13 -14 15 -1 2 3 -5 -6 7 0
13 -14 15 -1 2 3 -5 -6 -7 0
13 -14 15 -1 2 -3 5 6 7 0
13 -14 15 -1 2 -3 5 6 -7 17 0
13 -14 15 -1 2 -3 5 -6 7 16 0
13 -14 15 -1 2 -3 5 -6 -7 0
13 -14 15 -1 2 -3 -5 6 7 0
13 -14 15 -1 2 -3 -5 6 -7 0
13 -14 15 -1 2 -3 -5 -6 7 0
13 -14 15 -1 2 -3 -5 -6 -7 0
13 -14 15 -1 -2 3 5 6 7 0
13 -14 15 -1 -2 3 5 6 -7 21 0
13 -14 15 -1 -2 3 5 -6 7 0
13 -14 15 -1 -2 3 5 -6 -7 0
13 -14 15 -1 -2 3 -5 6 7 0
13 -14 15 -1 -2 3 -5 6 -7 0
13 -14 15 -1 -2 3 -5 -6 7 22 0
13 -14 15 -1 -2 3 -5 -6 -7 0
13 -14 15 -1 -2 -3 5 6 7 0
13 -14 15 -1 -2 -3 5 6 -7 0
13 -14 15 -1 -2 -3 5 -6 7 18 0
13 -14 15 -1 -2 -3 5 -6 -7 0
13 -14 15 -1 -2 -3 -5 6 7 0
13 -14 15 -1 -2 -3 -5 6 -7 0
13 -14 15 -1 -2 -3 -5 -6 7 0
13 -14 15 -1 -2 -3 -5 -6 -7 0
13 -14 -15 1 2 3 5 6 7 0
13 -14 -15 1 2 3 5 6 -7 0
13 -14 -15 1 2 3 5 -6 7 0
13 -14 -15 1 2 3 5 -6 -7 0
13 -14 -15 1 2 3 -5 6 7 0
13 -14 -15 1 2 3 -5 6 -7 0
13 -14 -15 1 2 3 -5 -6 7 16 0
13 -14 -15 1 2 3 -5 -6 -7 0
13 -14 -15 1 2 -3 5 6 7 0
13 -14 -15 1 2 -3 5 6 -7 0
13 -14 -15 1 2 -3 5 -6 7 0
13 -14 -15 1 2 -3 5 -6 -7 0
13 -14 -15 1 2 -3 -5 6 7 25 0
13 -14 -15 1 2 -3 -5 6 -7 0
13 -14 -15 1 2 -3 -5 -6 7 0
13 -14 -15 1 2 -3 -5 -6 -7 0
13 -14 -15 1 -2 3 5 6 7 0
13 -14 -15 1 -2 3 5 6 -7 23 0
13 -14 -15 1 -2 3 5 -6 7 16 0
13 -14 -15 1 -2 3 5 -6 -7 18 0
13 -14 -15 1 -2 3 -5 6 7 18 0
13 -14 -15 1 -2 3 -5 6 -7 0
13 -14 -15 1 -2 3 -5 -6 7 0
13 -14 -15 1 -2 3 -5 -6 -7 0
13 -14 -15 1 -2 -3 5 6 7 0
13 -14 -15 1 -2 -3 5 6 -7 0
13 -14 -15 1 -2 -3 5 -6 7 0
13 -14 -15 1 -2 -3 5 -6 -7 16 0
13 -14 -15 1 -2 -3 -5 6 7 23 0
13 -14 -15 1 -2 -3 -5 6 -7 0
13 -14 -15 1 -2 -3 -5 -6 7 0
13 -14 -15 1 -2 -3 -5 -6 -7 0
13 -14 -15 -1 2 3 5 6 7 0
13 -14 -15 -1 2 3 5 6 -7 0
13 -14 -15 -1 2 3 5 -6 7 18 0
13 -14 -15 -1 2 3 5 -6 -7 18 0
13 -14 -15 -1 2 3 -5 6 7 0
13 -14 -15 -1 2 3 -5 6 -7 0
13 -14 -15 -1 2 3 -5 -6 7 0
13 -14 -15 -1 2 3 -5 -6 -7 0
13 -14 -15 -1 2 -3 5 6 7 0
13 -14 -15 -1 2 -3 5 6 -7 0
13 -14 -15 -1 2 -3 5 -6 7 16 0
13 -14 -15 -1 2 -3 5 -6 -7 16 0
13 -14 -15 -1 2 -3 -5 6 7 0
13 -14 -15 -1 2 -3 -5 6 -7 0
13 -14 -15 -1 2 -3 -5 -6 7 0
13 -14 -15 -1 2 -3 -5 -6 -7 0
13 -14 -15 -1 -2 3 5 6 7 0
13 -14 -15 -1 -2 3 5 6 -7 24 0
13 -14 -15 -1 -2 3 5 -6 7 17 0
13 -14 -15 -1 -2 3 5 -6 -7 27 0
13 -14 -15 -1 -2 3 -5 6 7 0
13 -14 -15 -1 -2 3 -5 6 -7 0
13 -14 -15 -1 -2 3 -5 -6 7 22 0
13 -14 -15 -1 -2 3 -5 -6 -7 0
13 -14 -15 -1 -2 -3 5 6 7 23 0
13 -14 -15 -1 -2 -3 5 6 -7 23 0
13 -14 -15 -1 -2 -3 5 -6 7 0
13 -14 -15 -1 -2 -3 5 -6 -7 0
13 -14 -15 -1 -2 -3 -5 6 7 0
13 -14 -15 -1 -2 -3 -5 6 -7 0
13 -14 -15 -1 -2 -3 -5 -6 7 0
13 -14 -15 -1 -2 -3 -5 -6 -7 0
-13 14 15 1 2 3 5 6 7 0
-13 14 15 1 2 3 5 6 -7 0
-13 14 15 1 2 3 5 -6 7 0
-13 14 15 1 2 3 5 -6 -7 0
-13 14 15 1 2 3 -5 6 7 0
-13 14 15 1 2 3 -5 6 -7 18 0
-13 14 15 1 2 3 -5 -6 7 23 0
-13 14 15 1 2 3 -5 -6 -7 0
-13 14 15 1 2 -3 5 6 7 0
-13 14 15 1 2 -3 5 6 -7 0
-13 14 15 1 2 -3 5 -6 7 0
-13 14 15 1 2 -3 5 -6 -7 0
-13 14 15 1 2 -3 -5 6 7 25 0
-13 14 15 1 2 -3 -5 6 -7 17 0
-13 14 15 1 2 -3 -5 -6 7 16 0
-13 14 15 1 2 -3 -5 -6 -7 0
-13 14 15 1 -2 3 5 6 7 0
-13 14 15 1 -2 3 5 6 -7 0
-13 14 15 1 -2 3 5 -6 7 0
-13 14 15 1 -2 3 5 -6 -7 18 0
-13 14 15 1 -2 3 -5 6 7 18 0
-13 14 15 1 -2 3 -5 6 -7 17 0
-13 14 15 1 -2 3 -5 -6 7 0
-13 14 15 1 -2 3 -5 -6 -7 0
-13 14 15 1 -2 -3 5 6 7 0
-13 14 15 1 -2 -3 5 6 -7 0
-13 14 15 1 -2 -3 5 -6 7 0
-13 14 15 1 -2 -3 5 -6 -7 0
-13 14 15 1 -2 -3 -5 6 7 23 0
-13 14 15 1 -2 -3 -5 6 -7 0
-13 14 15 1 -2 -3 -5 -6 7 0
-13 14 15 1 -2 -3 -5 -6 -7 0
-13 14 15 -1 2 3 5 6 7 0
-13 14 15 -1 2 3 5 6 -7 0
-13 14 15 -1 2 3 5 -6 7 0
-13 14 15 -1 2 3 5 -6 -7 0
-13 14 15 -1 2 3 -5 6 7 18 0
-13 14 15 -1 2 3 -5 6 -7 0
-13 14 15 -1 2 3 -5 -6 7 27 0
-13 14 15 -1 2 3 -5 -6 -7 0
-13 14 15 -1 2 -3 5 6 7 0
-13 14 15 -1 2 -3 5 6 -7 0
-13 14 15 -1 2 -3 5 -6 7 0
-13 14 15 -1 2 -3 5 -6 -7 16 0
-13 14 15 -1 2 -3 -5 6 7 0
-13 14 15 -1 2 -3 -5 6 -7 26 0
-13 14 15 -1 2 -3 -5 -6 7 0
-13 14 15 -1 2 -3 -5 -6 -7 0
-13 14 15 -1 -2 3 5 6 7 0
-13 14 15 -1 -2 3 5 6 -7 0
-13 14 15 -1 -2 3 5 -6 7 0
-13 14 15 -1 -2 3 5 -6 -7 27 0
-13 14 15 -1 -2 3 -5 6 7 0
-13 14 15 -1 -2 3 -5 6 -7 0
-13 14 15 -1 -2 3 -5 -6 7 22 0
-13 14 15 -1 -2 3 -5 -6 -7 0
-13 14 15 -1 -2 -3 5 6 7 23 0
-13 14 15 -1 -2 -3 5 6 -7 16 0
-13 14 15 -1 -2 -3 5 -6 7 0
-13 14 15 -1 -2 -3 5 -6 -7 16 0
-13 14 15 -1 -2 -3 -5 6 7 0
-13 14 15 -1 -2 -3 -5 6 -7 0
-13 14 15 -1 -2 -3 -5 -6 7 0
-13 14 15 -1 -2 -3 -5 -6 -7 0
-13 14 -15 1 2 3 5 6 7 0
-13 14 -15 1 2 3 5 6 -7 0
-13 14 -15 1 2 3 5 -6 7 0
-13 14 -15 1 2 3 5 -6 -7 0
-13 14 -15 1 2 3 -5 6 7 0
-13 14 -15 1 2 3 -5 6 -7 0
-13 14 -15 1 2 3 -5 -6 7 0
-13 14 -15 1 2 3 -5 -6 -7 16 0
-13 14 -15 1 2 -3 5 6 7 0
-13 14 -15 1 2 -3 5 6 -7 0
-13 14 -15 1 2 -3 5 -6 7 0
-13 14 -15 1 2 -3 5 -6 -7 0
-13 14 -15 1 2 -3 -5 6 7 0
-13 14 -15 1 2 -3 -5 6 -7 0
-13 14 -15 1 2 -3 -5 -6 7 16 0
-13 14 -15 1 2 -3 -5 -6 -7 16 0
-13 14 -15 1 -2 3 5 6 7 0
-13 14 -15 1 -2 3 5 6 -7 0
-13 14 -15 1 -2 3 5 -6 7 0
-13 14 -15 1 -2 3 5 -6 -7 0
-13 14 -15 1 -2 3 -5 6 7 0
-13 14 -15 1 -2 3 -5 6 -7 0
-13 14 -15 1 -2 3 -5 -6 7 23 0
-13 14 -15 1 -2 3 -5 -6 -7 0
-13 14 -15 1 -2 -3 5 6 7 0
-13 14 -15 1 -2 -3 5 6 -7 0
-13 14 -15 1 -2 -3 5 -6 7 0
-13 14 -15 1 -2 -3 5 -6 -7 16 0
-13 14 -15 1 -2 -3 -5 6 7 0
-13 14 -15 1 -2 -3 -5 6 -7 17 0
-13 14 -15 1 -2 -3 -5 -6 7 23 0
-13 14 -15 1 -2 -3 -5 -6 -7 0
-13 14 -15 -1 2 3 5 6 7 0
-13 14 -15 -1 2 3 5 6 -7 0
-13 14 -15 -1 2 3 5 -6 7 0
-13 14 -15 -1 2 3 5 -6 -7 0
-13 14 -15 -1 2 3 -5 6 7 18 0
-13 14 -15 -1 2 3 -5 6 -7 26 0
-13 14 -15 -1 2 3 -5 -6 7 27 0
-13 14 -15 -1 2 3 -5 -6 -7 0
-13 14 -15 -1 2 -3 5 6 7 0
-13 14 -15 -1 2 -3 5 6 -7 0
-13 14 -15 -1 2 -3 5 -6 7 0
-13 14 -15 -1 2 -3 5 -6 -7 0
-13 14 -15 -1 2 -3 -5 6 7 17 0
-13 14 -15 -1 2 -3 -5 6 -7 26 0
-13 14 -15 -1 2 -3 -5 -6 7 0
-13 14 -15 -1 2 -3 -5 -6 -7 0
-13 14 -15 -1 -2 3 5 6 7 0
-13 14 -15 -1 -2 3 5 6 -7 0
-13 14 -15 -1 -2 3 5 -6 7 0
-13 14 -15 -1 -2 3 5 -6 -7 26 0
-13 14 -15 -1 -2 3 -5 6 7 16 0
-13 14 -15 -1 -2 3 -5 6 -7 0
-13 14 -15 -1 -2 3 -5 -6 7 22 0
-13 14 -15 -1 -2 3 -5 -6 -7 0
-13 14 -15 -1 -2 -3 5 6 7 0
-13 14 -15 -1 -2 -3 5 6 -7 23 0
-13 14 -15 -1 -2 -3 5 -6 7 21 0
-13 14 -15 -1 -2 -3 5 -6 -7 0
-13 14 -15 -1 -2 -3 -5 6 7 18 0
-13 14 -15 -1 -2 -3 -5 6 -7 0
-13 14 -15 -1 -2 -3 -5 -6 7 0
-13 14 -15 -1 -2 -3 -5 -6 -7 0
-13 -14 15 1 2 3 5 6 7 0
-13 -14 15 1 2 3 5 6 -7 0
-13 -14 15 1 2 3 5 -6 7 0
-13 -14 15 1 2 3 5 -6 -7 0
-13 -14 15 1 2 3 -5 6 7 0
-13 -14 15 1 2 3 -5 6 -7 0
-13 -14 15 1 2 3 -5 -6 7 0
-13 -14 15 1 2 3 -5 -6 -7 23 0
-13 -14 15 1 2 -3 5 6 7 0
-13 -14 15 1 2 -3 5 6 -7 0
-13 -14 15 1 2 -3 5 -6 7 0
-13 -14 15 1 2 -3 5 -6 -7 0
-13 -14 15 1 2 -3 -5 6 7 0
-13 -14 15 1 2 -3 -5 6 -7 0
-13 -14 15 1 2 -3 -5 -6 7 0
-13 -14 15 1 2 -3 -5 -6 -7 16 0
-13 -14 15 1 -2 3 5 6 7 0
-13 -14 15 1 -2 3 5 6 -7 0
-13 -14 15 1 -2 3 5 -6 7 0
-13 -14 15 1 -2 3 5 -6 -7 0
-13 -14 15 1 -2 3 -5 6 7 0
-13 -14 15 1 -2 3 -5 6 -7 0
-13 -14 15 1 -2 3 -5 -6 7 20 0
-13 -14 15 1 -2 3 -5 -6 -7 0
-13 -14 15 1 -2 -3 5 6 7 0
-13 -14 15 1 -2 -3 5 6 -7 0
-13 -14 15 1 -2 -3 5 -6 7 0
-13 -14 15 1 -2 -3 5 -6 -7 0
-13 -14 15 1 -2 -3 -5 6 7 0
-13 -14 15 1 -2 -3 -5 6 -7 0
-13 -14 15 1 -2 -3 -5 -6 7 20 0
-13 -14 15 1 -2 -3 -5 -6 -7 26 0
-13 -14 15 -1 2 3 5 6 7 0
-13 -14 15 -1 2 3 5 6 -7 0
-13 -14 15 -1 2 3 5 -6 7 0
-13 -14 15 -1 2 3 5 -6 -7 0
-13 -14 15 -1 2 3 -5 6 7 0
-13 -14 15 -1 2 3 -5 6 -7 28 0
-13 -14 15 -1 2 3 -5 -6 7 28 0
-13 -14 15 -1 2 3 -5 -6 -7 0
-13 -14 15 -1 2 -3 5 6 7 0
-13 -14 15 -1 2 -3 5 6 -7 0
-13 -14 15 -1 2 -3 5 -6 7 0
-13 -14 15 -1 2 -3 5 -6 -7 0
-13 -14 15 -1 2 -3 -5 6 7 0
-13 -14 15 -1 2 -3 -5 6 -7 27 0
-13 -14 15 -1 2 -3 -5 -6 7 17 0
-13 -14 15 -1 2 -3 -5 -6 -7 0
-13 -14 15 -1 -2 3 5 6 7 0
-13 -14 15 -1 -2 3 5 6 -7 0
-13 -14 15 -1 -2 3 5 -6 7 0
-13 -14 15 -1 -2 3 5 -6 -7 27 0
-13 -14 15 -1 -2 3 -5 6 7 16 0
-13 -14 15 -1 -2 3 -5 6 -7 0
-13 -14 15 -1 -2 3 -5 -6 7 22 0
-13 -14 15 -1 -2 3 -5 -6 -7 0
-13 -14 15 -1 -2 -3 5 6 7 0
-13 -14 15 -1 -2 -3 5 6 -7 0
-13 -14 15 -1 -2 -3 5 -6 7 0
-13 -14 15 -1 -2 -3 5 -6 -7 16 0
-13 -14 15 -1 -2 -3 -5 6 7 18 0
-13 -14 15 -1 -2 -3 -5 6 -7 0
-13 -14 15 -1 -2 -3 -5 -6 7 0
-13 -14 15 -1 -2 -3 -5 -6 -7 0
-13 -14 -15 1 2 3 5 6 7 0
-13 -14 -15 1 2 3 5 6 -7 0
-13 -14 -15 1 2 3 5 -6 7 0
-13 -14 -15 1 2 3 5 -6 -7 0
-13 -14 -15 1 2 3 -5 6 7 0
-13 -14 -15 1 2 3 -5 6 -7 0
-13 -14 -15 1 2 3 -5 -6 7 0
-13 -14 -15 1 2 3 -5 -6 -7 23 0
-13 -14 -15 1 2 -3 5 6 7 0
-13 -14 -15 1 2 -3 5 6 -7 0
-13 -14 -15 1 2 -3 5 -6 7 0
-13 -14 -15 1 2 -3 5 -6 -7 0
-13 -14 -15 1 2 -3 -5 6 7 0
-13 -14 -15 1 2 -3 -5 6 -7 0
-13 -14 -15 1 2 -3 -5 -6 7 0
-13 -14 -15 1 2 -3 -5 -6 -7 0
-13 -14 -15 1 -2 3 5 6 7 0
-13 -14 -15 1 -2 3 5 6 -7 0
-13 -14 -15 1 -2 3 5 -6 7 0
-13 -14 -15 1 -2 3 5 -6 -7 0
-13 -14 -15 1 -2 3 -5 6 7 0
-13 -14 -15 1 -2 3 -5 6 -7 0
-13 -14 -15 1 -2 3 -5 -6 7 0
-13 -14 -15 1 -2 3 -5 -6 -7 17 0
-13 -14 -15 1 -2 -3 5 6 7 0
-13 -14 -15 1 -2 -3 5 6 -7 0
-13 -14 -15 1 -2 -3 5 -6 7 0
-13 -14 -15 1 -2 -3 5 -6 -7 0
-13 -14 -15 1 -2 -3 -5 6 7 0
-13 -14 -15 1 -2 -3 -5 6 -7 0
-13 -14 -15 1 -2 -3 -5 -6 7 0
-13 -14 -15 1 -2 -3 -5 -6 -7 28 0
-13 -14 -15 -1 2 3 5 6 7 0
-13 -14 -15 -1 2 3 5 6 -7 0
-13 -14 -15 -1 2 3 5 -6 7 0
-13 -14 -15 -1 2 3 5 -6 -7 0
-13 -14 -15 -1 2 3 -5 6 7 0
-13 -14 -15 -1 2 3 -5 6 -7 0
-13 -14 -15 -1 2 3 -5 -6 7 0
-13 -14 -15 -1 2 3 -5 -6 -7 17 0
-13 -14 -15 -1 2 -3 5 6 7 0
-13 -14 -15 -1 2 -3 5 6 -7 0
-13 -14 -15 -1 2 -3 5 -6 7 0
-13 -14 -15 -1 2 -3 5 -6 -7 0
-13 -14 -15 -1 2 -3 -5 6 7 0
-13 -14 -15 -1 2 -3 -5 6 -7 0
-13 -14 -15 -1 2 -3 -5 -6 7 0
-13 -14 -15 -1 2 -3 -5 -6 -7 17 0
-13 -14 -15 -1 -2 3 5 6 7 0
-13 -14 -15 -1 -2 3 5 6 -7 0
-13 -14 -15 -1 -2 3 5 -6 7 0
-13 -14 -15 -1 -2 3 5 -6 -7 0
-13 -14 -15 -1 -2 3 -5 6 7 0
-13 -14 -15 -1 -2 3 -5 6 -7 17 0
-13 -14 -15 -1 -2 3 -5 -6 7 22 0
-13 -14 -15 -1 -2 3 -5 -6 -7 17 0
-13 -14 -15 -1 -2 -3 5 6 7 0
-13 -14 -15 -1 -2 -3 5 6 -7 0
-13 -14 -15 -1 -2 -3 5 -6 7 0
-13 -14 -15 -1 -2 -3 5 -6 -7 0
-13 -14 -15 -1 -2 -3 -5 6 7 18 0
-13 -14 -15 -1 -2 -3 -5 6 -7 17 0
-13 -14 -15 -1 -2 -3 -5 -6 7 17 0
-13 -14 -15 -1 -2 -3 -5 -6 -7 17 0
29 30 31 9 10 11 13 14 15 32 0
29 30 31 9 10 11 13 14 -15 32 0
29 30 31 9 10 11 13 -14 15 63 0
29 30 31 9 10 11 13 -14 -15 60 0
29 30 31 9 10 11 -13 14 15 53 0
29 30 31 9 10 11 -13 14 -15 56 0
29 30 31 9 10 11 -13 -14 15 80 0
29 30 31 9 10 11 -13 -14 -15 58 0
29 30 31 9 10 -11 13 14 15 33 0
29 30 31 9 10 -11 13 14 -15 33 0
29 30 31 9 10 -11 13 -14 15 92 0
29 30 31 9 10 -11 13 -14 -15 60 0
29 30 31 9 10 -11 -13 14 15 38 0
29 30 31 9 10 -11 -13 14 -15 59 0
29 30 31 9 10 -11 -13 -14 15 76 0
29 30 31 9 10 -11 -13 -14 -15 84 0
29 30 31 9 -10 11 13 14 15 33 0
29 30 31 9 -10 11 13 14 -15 34 0
29 30 31 9 -10 11 13 -14 15 82 0
29 30 31 9 -10 11 13 -14 -15 86 0
29 30 31 9 -10 11 -13 14 15 59 0
29 30 31 9 -10 11 -13 14 -15 83 0
29 30 31 9 -10 11 -13 -14 15 93 0
29 30 31 9 -10 11 -13 -14 -15 96 0
29 30 31 9 -10 -11 13 14 15 35 0
29 30 31 9 -10 -11 13 14 -15 61 0
29 30 31 9 -10 -11 13 -14 15 92 0
29 30 31 9 -10 -11 13 -14 -15 96 0
29 30 31 9 -10 -11 -13 14 15 98 0
29 30 31 9 -10 -11 -13 14 -15 94 0
29 30 31 9 -10 -11 -13 -14 15 64 0
29 30 31 9 -10 -11 -13 -14 -15 36 0
29 30 31 -9 10 11 13 14 15 37 0
29 30 31 -9 10 11 13 14 -15 34 0
29 30 31 -9 10 11 13 -14 15 53 0
29 30 31 -9 10 11 13 -14 -15 92 0
29 30 31 -9 10 11 -13 14 15 60 0
29 30 31 -9 10 11 -13 14 -15 58 0
29 30 31 -9 10 11 -13 -14 15 64 0
29 30 31 -9 10 11 -13 -14 -15 62 0
29 30 31 -9 10 -11 13 14 15 39 0
29 30 31 -9 10 -11 13 14 -15 36 0
29 30 31 -9 10 -11 13 -14 15 82 0
29 30 31 -9 10 -11 13 -14 -15 76 0
29 30 31 -9 10 -11 -13 14 15 54 0
29 30 31 -9 10 -11 -13 14 -15 54 0
29 30 31 -9 10 -11 -13 -14 15 54 0
29 30 31 -9 10 -11 -13 -14 -15 64 0
29 30 31 -9 -10 11 13 14 15 40 0
29 30 31 -9 -10 11 13 14 -15 53 0
29 30 31 -9 -10 11 13 -14 15 60 0
29 30 31 -9 -10 11 13 -14 -15 54 0
29 30 31 -9 -10 11 -13 14 15 83 0
29 30 31 -9 -10 11 -13 14 -15 93 0
29 30 31 -9 -10 11 -13 -14 15 54 0
29 30 31 -9 -10 11 -13 -14 -15 93 0
29 30 31 -9 -10 -11 13 14 15 65 0
29 30 31 -9 -10 -11 13 14 -15 57 0
29 30 31 -9 -10 -11 13 -14 15 53 0
29 30 31 -9 -10 -11 13 -14 -15 94 0
29 30 31 -9 -10 -11 -13 14 15 36 0
29 30 31 -9 -10 -11 -13 14 -15 58 0
29 30 31 -9 -10 -11 -13 -14 15 87 0
29 30 31 -9 -10 -11 -13 -14 -15 64 0
29 30 -31 9 10 11 13 14 15 88 0
29 30 -31 9 10 11 13 14 -15 88 0
29 30 -31 9 10 11 13 -14 15 37 0
29 30 -31 9 10 11 13 -14 -15 60 0
29 30 -31 9 10 11 -13 14 15 53 0
29 30 -31 9 10 11 -13 14 -15 56 0
29 30 -31 9 10 11 -13 -14 15 80 0
29 30 -31 9 10 11 -13 -14 -15 58 0
29 30 -31 9 10 -11 13 14 15 92 0
29 30 -31 9 10 -11 13 14 -15 92 0
29 30 -31 9 10 -11 13 -14 15 33 0
29 30 -31 9 10 -11 13 -14 -15 60 0
29 30 -31 9 10 -11 -13 14 15 38 0
29 30 -31 9 10 -11 -13 14 -15 59 0
29 30 -31 9 10 -11 -13 -14 15 76 0
29 30 -31 9 10 -11 -13 -14 -15 84 0
29 30 -31 9 -10 11 13 14 15 92 0
29 30 -31 9 -10 11 13 14 -15 41 0
29 30 -31 9 -10 11 13 -14 15 49 0
29 30 -31 9 -10 11 13 -14 -15 86 0
29 30 -31 9 -10 11 -13 14 15 59 0
29 30 -31 9 -10 11 -13 14 -15 83 0
29 30 -31 9 -10 11 -13 -14 15 93 0
29 30 -31 9 -10 11 -13 -14 -15 96 0
29 30 -31 9 -10 -11 13 14 15 61 0
29 30 -31 9 -10 -11 13 14 -15 35 0
29 30 -31 9 -10 -11 13 -14 15 92 0
29 30 -31 9 -10 -11 13 -14 -15 96 0
29 30 -31 9 -10 -11 -13 14 15 98 0
29 30 -31 9 -10 -11 -13 14 -15 94 0
29 30 -31 9 -10 -11 -13 -14 15 64 0
29 30 -31 9 -10 -11 -13 -14 -15 36 0
29 30 -31 -9 10 11 13 14 15 63 0
29 30 -31 -9 10 11 13 14 -15 41 0
29 30 -31 -9 10 11 13 -14 15 53 0
29 30 -31 -9 10 11 13 -14 -15 92 0
29 30 -31 -9 10 11 -13 14 15 60 0
29 30 -31 -9 10 11 -13 14 -15 58 0
29 30 -31 -9 10 11 -13 -14 15 64 0
29 30 -31 -9 10 11 -13 -14 -15 62 0
29 30 -31 -9 10 -11 13 14 15 45 0
29 30 -31 -9 10 -11 13 14 -15 36 0
29 30 -31 -9 10 -11 13 -14 15 82 0
29 30 -31 -9 10 -11 13 -14 -15 76 0
29 30 -31 -9 10 -11 -13 14 15 54 0
29 30 -31 -9 10 -11 -13 14 -15 54 0
29 30 -31 -9 10 -11 -13 -14 15 54 0
29 30 -31 -9 10 -11 -13 -14 -15 64 0
29 30 -31 -9 -10 11 13 14 15 38 0
29 30 -31 -9 -10 11 13 14 -15 45 0
29 30 -31 -9 -10 11 13 -14 15 60 0
29 30 -31 -9 -10 11 13 -14 -15 54 0
29 30 -31 -9 -10 11 -13 14 15 83 0
29 30 -31 -9 -10 11 -13 14 -15 93 0
29 30 -31 -9 -10 11 -13 -14 15 54 0
29 30 -31 -9 -10 11 -13 -14 -15 93 0
29 30 -31 -9 -10 -11 13 14 15 71 0
29 30 -31 -9 -10 -11 13 14 -15 79 0
29 30 -31 -9 -10 -11 13 -14 15 53 0
29 30 -31 -9 -10 -11 13 -14 -15 94 0
29 30 -31 -9 -10 -11 -13 14 15 36 0
29 30 -31 -9 -10 -11 -13 14 -15 58 0
29 30 -31 -9 -10 -11 -13 -14 15 87 0
29 30 -31 -9 -10 -11 -13 -14 -15 64 0
29 -30 31 9 10 11 13 14 15 88 0
29 -30 31 9 10 11 13 14 -15 88 0
29 -30 31 9 10 11 13 -14 15 63 0
29 -30 31 9 10 11 13 -14 -15 52 0
29 -30 31 9 10 11 -13 14 15 45 0
29 -30 31 9 10 11 -13 14 -15 56 0
29 -30 31 9 10 11 -13 -14 15 80 0
29 -30 31 9 10 11 -13 -14 -15 58 0
29 -30 31 9 10 -11 13 14 15 92 0
29 -30 31 9 10 -11 13 14 -15 92 0
29 -30 31 9 10 -11 13 -14 15 92 0
29 -30 31 9 10 -11 13 -14 -15 52 0
29 -30 31 9 10 -11 -13 14 15 38 0
29 -30 31 9 10 -11 -13 14 -15 59 0
29 -30 31 9 10 -11 -13 -14 15 76 0
29 -30 31 9 10 -11 -13 -14 -15 84 0
29 -30 31 9 -10 11 13 14 15 92 0
29 -30 31 9 -10 11 13 14 -15 82 0
29 -30 31 9 -10 11 13 -14 15 49 0
29 -30 31 9 -10 11 13 -14 -15 86 0
29 -30 31 9 -10 11 -13 14 15 59 0
29 -30 31 9 -10 11 -13 14 -15 83 0
29 -30 31 9 -10 11 -13 -14 15 93 0
29 -30 31 9 -10 11 -13 -14 -15 96 0
29 -30 31 9 -10 -11 13 14 15 61 0
29 -30 31 9 -10 -11 13 14 -15 61 0
29 -30 31 9 -10 -11 13 -14 15 85 0
29 -30 31 9 -10 -11 13 -14 -15 42 0
29 -30 31 9 -10 -11 -13 14 15 98 0
29 -30 31 9 -10 -11 -13 14 -15 94 0
29 -30 31 9 -10 -11 -13 -14 15 64 0
29 -30 31 9 -10 -11 -13 -14 -15 36 0
29 -30 31 -9 10 11 13 14 15 63 0
29 -30 31 -9 10 11 13 14 -15 82 0
29 -30 31 -9 10 11 13 -14 15 39 0
29 -30 31 -9 10 11 13 -14 -15 92 0
29 -30 31 -9 10 11 -13 14 15 60 0
29 -30 31 -9 10 11 -13 14 -15 58 0
29 -30 31 -9 10 11 -13 -14 15 64 0
29 -30 31 -9 10 11 -13 -14 -15 62 0
29 -30 31 -9 10 -11 13 14 15 53 0
29 -30 31 -9 10 -11 13 14 -15 36 0
29 -30 31 -9 10 -11 13 -14 15 41 0
29 -30 31 -9 10 -11 13 -14 -15 76 0
29 -30 31 -9 10 -11 -13 14 15 54 0
29 -30 31 -9 10 -11 -13 14 -15 54 0
29 -30 31 -9 10 -11 -13 -14 15 54 0
29 -30 31 -9 10 -11 -13 -14 -15 64 0
29 -30 31 -9 -10 11 13 14 15 38 0
29 -30 31 -9 -10 11 13 14 -15 39 0
29 -30 31 -9 -10 11 13 -14 15 60 0
29 -30 31 -9 -10 11 13 -14 -15 54 0
29 -30 31 -9 -10 11 -13 14 15 83 0
29 -30 31 -9 -10 11 -13 14 -15 93 0
29 -30 31 -9 -10 11 -13 -14 15 54 0
29 -30 31 -9 -10 11 -13 -14 -15 93 0
29 -30 31 -9 -10 -11 13 14 15 65 0
29 -30 31 -9 -10 -11 13 14 -15 72 0
29 -30 31 -9 -10 -11 13 -14 15 53 0
29 -30 31 -9 -10 -11 13 -14 -15 94 0
29 -30 31 -9 -10 -11 -13 14 15 36 0
29 -30 31 -9 -10 -11 -13 14 -15 58 0
29 -30 31 -9 -10 -11 -13 -14 15 87 0
29 -30 31 -9 -10 -11 -13 -14 -15 64 0
29 -30 -31 9 10 11 13 14 15 88 0
29 -30 -31 9 10 11 13 14 -15 88 0
29 -30 -31 9 10 11 13 -14 15 63 0
29 -30 -31 9 10 11 13 -14 -15 60 0
29 -30 -31 9 10 11 -13 14 15 39 0
29 -30 -31 9 10 11 -13 14 -15 56 0
29 -30 -31 9 10 11 -13 -14 15 80 0
29 -30 -31 9 10 11 -13 -14 -15 58 0
29 -30 -31 9 10 -11 13 14 15 92 0
29 -30 -31 9 10 -11 13 14 -15 92 0
29 -30 -31 9 10 -11 13 -14 15 92 0
29 -30 -31 9 10 -11 13 -14 -15 60 0
29 -30 -31 9 10 -11 -13 14 15 89 0
29 -30 -31 9 10 -11 -13 14 -15 59 0
29 -30 -31 9 10 -11 -13 -14 15 76 0
29 -30 -31 9 10 -11 -13 -14 -15 84 0
29 -30 -31 9 -10 11 13 14 15 92 0
29 -30 -31 9 -10 11 13 14 -15 82 0
29 -30 -31 9 -10 11 13 -14 15 82 0
29 -30 -31 9 -10 11 13 -14 -15 66 0
29 -30 -31 9 -10 11 -13 14 15 67 0
29 -30 -31 9 -10 11 -13 14 -15 83 0
29 -30 -31 9 -10 11 -13 -14 15 93 0
29 -30 -31 9 -10 11 -13 -14 -15 96 0
29 -30 -31 9 -10 -11 13 14 15 61 0
29 -30 -31 9 -10 -11 13 14 -15 61 0
29 -30 -31 9 -10 -11 13 -14 15 92 0
29 -30 -31 9 -10 -11 13 -14 -15 51 0
29 -30 -31 9 -10 -11 -13 14 15 65 0
29 -30 -31 9 -10 -11 -13 14 -15 94 0
29 -30 -31 9 -10 -11 -13 -14 15 64 0
29 -30 -31 9 -10 -11 -13 -14 -15 36 0
29 -30 -31 -9 10 11 13 14 15 63 0
29 -30 -31 -9 10 11 13 14 -15 82 0
29 -30 -31 -9 10 11 13 -14 15 45 0
29 -30 -31 -9 10 11 13 -14 -15 85 0
29 -30 -31 -9 10 11 -13 14 15 60 0
29 -30 -31 -9 10 11 -13 14 -15 58 0
29 -30 -31 -9 10 11 -13 -14 15 64 0
29 -30 -31 -9 10 11 -13 -14 -15 62 0
29 -30 -31 -9 10 -11 13 14 15 53 0
29 -30 -31 -9 10 -11 13 14 -15 36 0
29 -30 -31 -9 10 -11 13 -14 15 34 0
29 -30 -31 -9 10 -11 13 -14 -15 100 0
29 -30 -31 -9 10 -11 -13 14 15 54 0
29 -30 -31 -9 10 -11 -13 14 -15 54 0
29 -30 -31 -9 10 -11 -13 -14 15 54 0
29 -30 -31 -9 10 -11 -13 -14 -15 64 0
29 -30 -31 -9 -10 11 13 14 15 38 0
29 -30 -31 -9 -10 11 13 14 -15 53 0
29 -30 -31 -9 -10 11 13 -14 15 52 0
29 -30 -31 -9 -10 11 13 -14 -15 54 0
29 -30 -31 -9 -10 11 -13 14 15 83 0
29 -30 -31 -9 -10 11 -13 14 -15 93 0
29 -30 -31 -9 -10 11 -13 -14 15 54 0
29 -30 -31 -9 -10 11 -13 -14 -15 93 0
29 -30 -31 -9 -10 -11 13 14 15 98 0
29 -30 -31 -9 -10 -11 13 14 -15 57 0
29 -30 -31 -9 -10 -11 13 -14 15 45 0
29 -30 -31 -9 -10 -11 13 -14 -15 94 0
29 -30 -31 -9 -10 -11 -13 14 15 36 0
29 -30 -31 -9 -10 -11 -13 14 -15 58 0
29 -30 -31 -9 -10 -11 -13 -14 15 87 0
29 -30 -31 -9 -10 -11 -13 -14 -15 64 0
-29 30 31 9 10 11 13 14 15 88 0
-29 30 31 9 10 11 13 14 -15 88 0
-29 30 31 9 10 11 13 -14 15 63 0
-29 30 31 9 10 11 13 -14 -15 60 0
-29 30 31 9 10 11 -13 14 15 53 0
-29 30 31 9 10 11 -13 14 -15 43 0
-29 30 31 9 10 11 -13 -14 15 44 0
-29 30 31 9 10 11 -13 -14 -15 58 0
-29 30 31 9 10 -11 13 14 15 92 0
-29 30 31 9 10 -11 13 14 -15 92 0
-29 30 31 9 10 -11 13 -14 15 92 0
-29 30 31 9 10 -11 13 -14 -15 60 0
-29 30 31 9 10 -11 -13 14 15 38 0
-29 30 31 9 10 -11 -13 14 -15 73 0
-29 30 31 9 10 -11 -13 -14 15 76 0
-29 30 31 9 10 -11 -13 -14 -15 84 0
-29 30 31 9 -10 11 13 14 15 92 0
-29 30 31 9 -10 11 13 14 -15 82 0
-29 30 31 9 -10 11 13 -14 15 82 0
-29 30 31 9 -10 11 13 -14 -15 86 0
-29 30 31 9 -10 11 -13 14 15 67 0
-29 30 31 9 -10 11 -13 14 -15 46 0
-29 30 31 9 -10 11 -13 -14 15 93 0
-29 30 31 9 -10 11 -13 -14 -15 96 0
-29 30 31 9 -10 -11 13 14 15 61 0
-29 30 31 9 -10 -11 13 14 -15 61 0
-29 30 31 9 -10 -11 13 -14 15 92 0
-29 30 31 9 -10 -11 13 -14 -15 96 0
-29 30 31 9 -10 -11 -13 14 15 65 0
-29 30 31 9 -10 -11 -13 14 -15 94 0
-29 30 31 9 -10 -11 -13 -14 15 64 0
-29 30 31 9 -10 -11 -13 -14 -15 36 0
-29 30 31 -9 10 11 13 14 15 63 0
-29 30 31 -9 10 11 13 14 -15 82 0
-29 30 31 -9 10 11 13 -14 15 53 0
-29 30 31 -9 10 11 13 -14 -15 92 0
-29 30 31 -9 10 11 -13 14 15 52 0
-29 30 31 -9 10 11 -13 14 -15 58 0
-29 30 31 -9 10 11 -13 -14 15 64 0
-29 30 31 -9 10 11 -13 -14 -15 62 0
-29 30 31 -9 10 -11 13 14 15 53 0
-29 30 31 -9 10 -11 13 14 -15 36 0
-29 30 31 -9 10 -11 13 -14 15 82 0
-29 30 31 -9 10 -11 13 -14 -15 78 0
-29 30 31 -9 10 -11 -13 14 15 99 0
-29 30 31 -9 10 -11 -13 14 -15 54 0
-29 30 31 -9 10 -11 -13 -14 15 54 0
-29 30 31 -9 10 -11 -13 -14 -15 64 0
-29 30 31 -9 -10 11 13 14 15 38 0
-29 30 31 -9 -10 11 13 14 -15 53 0
-29 30 31 -9 -10 11 13 -14 15 60 0
-29 30 31 -9 -10 11 13 -14 -15 47 0
-29 30 31 -9 -10 11 -13 14 15 68 0
-29 30 31 -9 -10 11 -13 14 -15 93 0
-29 30 31 -9 -10 11 -13 -14 15 54 0
-29 30 31 -9 -10 11 -13 -14 -15 93 0
-29 30 31 -9 -10 -11 13 14 15 98 0
-29 30 31 -9 -10 -11 13 14 -15 69 0
-29 30 31 -9 -10 -11 13 -14 15 39 0
-29 30 31 -9 -10 -11 13 -14 -15 94 0
-29 30 31 -9 -10 -11 -13 14 15 36 0
-29 30 31 -9 -10 -11 -13 14 -15 58 0
-29 30 31 -9 -10 -11 -13 -14 15 87 0
-29 30 31 -9 -10 -11 -13 -14 -15 64 0
-29 30 -31 9 10 11 13 14 15 88 0
-29 30 -31 9 10 11 13 14 -15 88 0
-29 30 -31 9 10 11 13 -14 15 63 0
-29 30 -31 9 10 11 13 -14 -15 60 0
-29 30 -31 9 10 11 -13 14 15 53 0
-29 30 -31 9 10 11 -13 14 -15 55 0
-29 30 -31 9 10 11 -13 -14 15 44 0
-29 30 -31 9 10 11 -13 -14 -15 75 0
-29 30 -31 9 10 -11 13 14 15 92 0
-29 30 -31 9 10 -11 13 14 -15 92 0
-29 30 -31 9 10 -11 13 -14 15 92 0
-29 30 -31 9 10 -11 13 -14 -15 60 0
-29 30 -31 9 10 -11 -13 14 15 38 0
-29 30 -31 9 10 -11 -13 14 -15 73 0
-29 30 -31 9 10 -11 -13 -14 15 97 0
-29 30 -31 9 10 -11 -13 -14 -15 84 0
-29 30 -31 9 -10 11 13 14 15 92 0
-29 30 -31 9 -10 11 13 14 -15 82 0
-29 30 -31 9 -10 11 13 -14 15 82 0
-29 30 -31 9 -10 11 13 -14 -15 86 0
-29 30 -31 9 -10 11 -13 14 15 59 0
-29 30 -31 9 -10 11 -13 14 -15 46 0
-29 30 -31 9 -10 11 -13 -14 15 93 0
-29 30 -31 9 -10 11 -13 -14 -15 96 0
-29 30 -31 9 -10 -11 13 14 15 61 0
-29 30 -31 9 -10 -11 13 14 -15 61 0
-29 30 -31 9 -10 -11 13 -14 15 92 0
-29 30 -31 9 -10 -11 13 -14 -15 96 0
-29 30 -31 9 -10 -11 -13 14 15 71 0
-29 30 -31 9 -10 -11 -13 14 -15 91 0
-29 30 -31 9 -10 -11 -13 -14 15 64 0
-29 30 -31 9 -10 -11 -13 -14 -15 36 0
-29 30 -31 -9 10 11 13 14 15 63 0
-29 30 -31 -9 10 11 13 14 -15 82 0
-29 30 -31 -9 10 11 13 -14 15 53 0
-29 30 -31 -9 10 11 13 -14 -15 92 0
-29 30 -31 -9 10 11 -13 14 15 60 0
-29 30 -31 -9 10 11 -13 14 -15 75 0
-29 30 -31 -9 10 11 -13 -14 15 64 0
-29 30 -31 -9 10 11 -13 -14 -15 62 0
-29 30 -31 -9 10 -11 13 14 15 53 0
-29 30 -31 -9 10 -11 13 14 -15 36 0
-29 30 -31 -9 10 -11 13 -14 15 82 0
-29 30 -31 -9 10 -11 13 -14 -15 76 0
-29 30 -31 -9 10 -11 -13 14 15 47 0
-29 30 -31 -9 10 -11 -13 14 -15 47 0
-29 30 -31 -9 10 -11 -13 -14 15 54 0
-29 30 -31 -9 10 -11 -13 -14 -15 64 0
-29 30 -31 -9 -10 11 13 14 15 38 0
-29 30 -31 -9 -10 11 13 14 -15 53 0
-29 30 -31 -9 -10 11 13 -14 15 60 0
-29 30 -31 -9 -10 11 13 -14 -15 99 0
-29 30 -31 -9 -10 11 -13 14 15 50 0
-29 30 -31 -9 -10 11 -13 14 -15 93 0
-29 30 -31 -9 -10 11 -13 -14 15 54 0
-29 30 -31 -9 -10 11 -13 -14 -15 93 0
-29 30 -31 -9 -10 -11 13 14 15 98 0
-29 30 -31 -9 -10 -11 13 14 -15 57 0
-29 30 -31 -9 -10 -11 13 -14 15 53 0
-29 30 -31 -9 -10 -11 13 -14 -15 91 0
-29 30 -31 -9 -10 -11 -13 14 15 36 0
-29 30 -31 -9 -10 -11 -13 14 -15 58 0
-29 30 -31 -9 -10 -11 -13 -14 15 87 0
-29 30 -31 -9 -10 -11 -13 -14 -15 64 0
-29 -30 31 9 10 11 13 14 15 88 0
-29 -30 31 9 10 11 13 14 -15 88 0
-29 -30 31 9 10 11 13 -14 15 63 0
-29 -30 31 9 10 11 13 -14 -15 60 0
-29 -30 31 9 10 11 -13 14 15 53 0
-29 -30 31 9 10 11 -13 14 -15 56 0
-29 -30 31 9 10 11 -13 -14 15 44 0
-29 -30 31 9 10 11 -13 -14 -15 75 0
-29 -30 31 9 10 -11 13 14 15 92 0
-29 -30 31 9 10 -11 13 14 -15 92 0
-29 -30 31 9 10 -11 13 -14 15 92 0
-29 -30 31 9 10 -11 13 -14 -15 60 0
-29 -30 31 9 10 -11 -13 14 15 38 0
-29 -30 31 9 10 -11 -13 14 -15 59 0
-29 -30 31 9 10 -11 -13 -14 15 77 0
-29 -30 31 9 10 -11 -13 -14 -15 70 0
-29 -30 31 9 -10 11 13 14 15 92 0
-29 -30 31 9 -10 11 13 14 -15 82 0
-29 -30 31 9 -10 11 13 -14 15 82 0
-29 -30 31 9 -10 11 13 -14 -15 86 0
-29 -30 31 9 -10 11 -13 14 15 59 0
-29 -30 31 9 -10 11 -13 14 -15 83 0
-29 -30 31 9 -10 11 -13 -14 15 81 0
-29 -30 31 9 -10 11 -13 -14 -15 95 0
-29 -30 31 9 -10 -11 13 14 15 61 0
-29 -30 31 9 -10 -11 13 14 -15 61 0
-29 -30 31 9 -10 -11 13 -14 15 92 0
-29 -30 31 9 -10 -11 13 -14 -15 96 0
-29 -30 31 9 -10 -11 -13 14 15 98 0
-29 -30 31 9 -10 -11 -13 14 -15 94 0
-29 -30 31 9 -10 -11 -13 -14 15 74 0
-29 -30 31 9 -10 -11 -13 -14 -15 36 0
-29 -30 31 -9 10 11 13 14 15 63 0
-29 -30 31 -9 10 11 13 14 -15 82 0
-29 -30 31 -9 10 11 13 -14 15 53 0
-29 -30 31 -9 10 11 13 -14 -15 92 0
-29 -30 31 -9 10 11 -13 14 15 60 0
-29 -30 31 -9 10 11 -13 14 -15 75 0
-29 -30 31 -9 10 11 -13 -14 15 74 0
-29 -30 31 -9 10 11 -13 -14 -15 62 0
-29 -30 31 -9 10 -11 13 14 15 53 0
-29 -30 31 -9 10 -11 13 14 -15 36 0
-29 -30 31 -9 10 -11 13 -14 15 82 0
-29 -30 31 -9 10 -11 13 -14 -15 76 0
-29 -30 31 -9 10 -11 -13 14 15 54 0
-29 -30 31 -9 10 -11 -13 14 -15 99 0
-29 -30 31 -9 10 -11 -13 -14 15 99 0
-29 -30 31 -9 10 -11 -13 -14 -15 64 0
-29 -30 31 -9 -10 11 13 14 15 38 0
-29 -30 31 -9 -10 11 13 14 -15 53 0
-29 -30 31 -9 -10 11 13 -14 15 60 0
-29 -30 31 -9 -10 11 13 -14 -15 54 0
-29 -30 31 -9 -10 11 -13 14 15 83 0
-29 -30 31 -9 -10 11 -13 14 -15 81 0
-29 -30 31 -9 -10 11 -13 -14 15 47 0
-29 -30 31 -9 -10 11 -13 -14 -15 93 0
-29 -30 31 -9 -10 -11 13 14 15 98 0
-29 -30 31 -9 -10 -11 13 14 -15 57 0
-29 -30 31 -9 -10 -11 13 -14 15 53 0
-29 -30 31 -9 -10 -11 13 -14 -15 94 0
-29 -30 31 -9 -10 -11 -13 14 15 36 0
-29 -30 31 -9 -10 -11 -13 14 -15 75 0
-29 -30 31 -9 -10 -11 -13 -14 15 90 0
-29 -30 31 -9 -10 -11 -13 -14 -15 64 0
-29 -30 -31 9 10 11 13 14 15 88 0
-29 -30 -31 9 10 11 13 14 -15 88 0
-29 -30 -31 9 10 11 13 -14 15 63 0
-29 -30 -31 9 10 11 13 -14 -15 60 0
-29 -30 -31 9 10 11 -13 14 15 53 0
-29 -30 -31 9 10 11 -13 14 -15 56 0
-29 -30 -31 9 10 11 -13 -14 15 80 0
-29 -30 -31 9 10 11 -13 -14 -15 58 0
-29 -30 -31 9 10 -11 13 14 15 92 0
-29 -30 -31 9 10 -11 13 14 -15 92 0
-29 -30 -31 9 10 -11 13 -14 15 92 0
-29 -30 -31 9 10 -11 13 -14 -15 60 0
-29 -30 -31 9 10 -11 -13 14 15 38 0
-29 -30 -31 9 10 -11 -13 14 -15 59 0
-29 -30 -31 9 10 -11 -13 -14 15 76 0
-29 -30 -31 9 10 -11 -13 -14 -15 48 0
-29 -30 -31 9 -10 11 13 14 15 92 0
-29 -30 -31 9 -10 11 13 14 -15 82 0
-29 -30 -31 9 -10 11 13 -14 15 82 0
-29 -30 -31 9 -10 11 13 -14 -15 86 0
-29 -30 -31 9 -10 11 -13 14 15 59 0
-29 -30 -31 9 -10 11 -13 14 -15 83 0
-29 -30 -31 9 -10 11 -13 -14 15 93 0
-29 -30 -31 9 -10 11 -13 -14 -15 101 0
-29 -30 -31 9 -10 -11 13 14 15 61 0
-29 -30 -31 9 -10 -11 13 14 -15 61 0
-29 -30 -31 9 -10 -11 13 -14 15 92 0
-29 -30 -31 9 -10 -11 13 -14 -15 96 0
-29 -30 -31 9 -10 -11 -13 14 15 98 0
-29 -30 -31 9 -10 -11 -13 14 -15 94 0
-29 -30 -31 9 -10 -11 -13 -14 15 64 0
-29 -30 -31 9 -10 -11 -13 -14 -15 36 0
-29 -30 -31 -9 10 11 13 14 15 63 0
-29 -30 -31 -9 10 11 13 14 -15 82 0
-29 -30 -31 -9 10 11 13 -14 15 53 0
-29 -30 -31 -9 10 11 13 -14 -15 92 0
-29 -30 -31 -9 10 11 -13 14 15 60 0
-29 -30 -31 -9 10 11 -13 14 -15 58 0
-29 -30 -31 -9 10 11 -13 -14 15 64 0
-29 -30 -31 -9 10 11 -13 -14 -15 102 0
-29 -30 -31 -9 10 -11 13 14 15 53 0
-29 -30 -31 -9 10 -11 13 14 -15 36 0
-29 -30 -31 -9 10 -11 13 -14 15 82 0
-29 -30 -31 -9 10 -11 13 -14 -15 76 0
-29 -30 -31 -9 10 -11 -13 14 15 54 0
-29 -30 -31 -9 10 -11 -13 14 -15 54 0
-29 -30 -31 -9 10 -11 -13 -14 15 47 0
-29 -30 -31 -9 10 -11 -13 -14 -15 74 0
-29 -30 -31 -9 -10 11 13 14 15 38 0
-29 -30 -31 -9 -10 11 13 14 -15 53 0
-29 -30 -31 -9 -10 11 13 -14 15 60 0
-29 -30 -31 -9 -10 11 13 -14 -15 54 0
-29 -30 -31 -9 -10 11 -13 14 15 83 0
-29 -30 -31 -9 -10 11 -13 14 -15 93 0
-29 -30 -31 -9 -10 11 -13 -14 15 99 0
-29 -30 -31 -9 -10 11 -13 -14 -15 81 0
-29 -30 -31 -9 -10 -11 13 14 15 98 0
-29 -30 -31 -9 -10 -11 13 14 -15 57 0
-29 -30 -31 -9 -10 -11 13 -14 15 53 0
-29 -30 -31 -9 -10 -11 13 -14 -15 94 0
-29 -30 -31 -9 -10 -11 -13 14 15 36 0
-29 -30 -31 -9 -10 -11 -13 14 -15 75 0
-29 -30 -31 -9 -10 -11 -13 -14 15 87 0
-29 -30 -31 -9 -10 -11 -13 -14 -15 74 0
